(declare-datatypes () ((Nat2 (Z) (S (p Nat2)))))
(declare-datatypes () ((Nat (Z2) (S2 (q Nat)))))
(declare-datatypes () ((list (nil) (cons (head Nat) (tail list)))))
(declare-fun zcount (Nat list) Nat2)
(declare-fun insert2 (Nat list) list)
(declare-fun isort (list) list)
(declare-fun le (Nat Nat) Bool)
(declare-fun equal (Nat Nat) Bool)
(assert (forall ((x Nat)) (= (zcount x nil) Z)))
(assert
  (forall ((x Nat) (z Nat) (xs list))
    (=> (= (equal x z) true)
      (= (zcount x (cons z xs)) (S (zcount x xs))))))
(assert
  (forall ((x Nat) (z Nat) (xs list))
    (=> (= (equal x z) false)
      (= (zcount x (cons z xs)) (zcount x xs)))))
(assert (forall ((x Nat)) (= (insert2 x nil) (cons x nil))))
(assert
  (forall ((x Nat) (z Nat) (xs list))
    (=> (= (le x z) true)
      (= (insert2 x (cons z xs)) (cons x (cons z xs))))))
(assert
  (forall ((x Nat) (z Nat) (xs list))
    (=> (= (le x z) false)
      (= (insert2 x (cons z xs)) (cons z (insert2 x xs))))))
(assert (= (isort nil) nil))
(assert
  (forall ((y Nat) (xs list))
    (= (isort (cons y xs)) (insert2 y (isort xs)))))
(assert (forall ((y Nat)) (= (le Z2 y) true)))
(assert (forall ((z Nat)) (= (le (S2 z) Z2) false)))
(assert
  (forall ((z Nat) (x2 Nat)) (= (le (S2 z) (S2 x2)) (le z x2))))
(assert (= (equal Z2 Z2) true))
(assert (forall ((z Nat)) (= (equal Z2 (S2 z)) false)))
(assert (forall ((x2 Nat)) (= (equal (S2 x2) Z2) false)))
(assert
  (forall ((x2 Nat) (y2 Nat))
    (= (equal (S2 x2) (S2 y2)) (equal x2 y2))))
(assert-not
  (forall ((x Nat) (y list)) (= (zcount x (isort y)) (zcount x y))))
(check-sat)
